c CNF file generated from BLIF2CNF script.
c Original BLIF file was blif/alu3.blif
p cnf 118 564
-1 -6 0
-3 -6 0
6 1 3  0
-6 5 0
2 -7 0
-3 -7 0
7 -2 3  0
-7 5 0
-1 -8 0
4 -8 0
8 1 -4  0
-8 5 0
2 -9 0
4 -9 0
9 -2 -4  0
-9 5 0
1 -10 0
-2 -10 0
3 -10 0
-4 -10 0
10 -1 2 -3 4  0
-10 5 0
-5 6 7 8 9 10  0
2 -14 0
-11 -14 0
14 -2 11  0
-14 13 0
-3 -15 0
-11 -15 0
15 3 11  0
-15 13 0
2 -16 0
12 -16 0
16 -2 -12  0
-16 13 0
-3 -17 0
12 -17 0
17 3 -12  0
-17 13 0
-1 -18 0
-11 -18 0
-4 -18 0
18 1 11 4  0
-18 13 0
-1 -19 0
-4 -19 0
12 -19 0
19 1 4 -12  0
-19 13 0
-2 -20 0
11 -20 0
4 -20 0
-12 -20 0
20 2 -11 -4 12  0
-20 13 0
1 -21 0
-2 -21 0
3 -21 0
11 -21 0
-12 -21 0
21 -1 2 -3 -11 12  0
-21 13 0
-13 14 15 16 17 18 19 20 21  0
-2 -25 0
-22 -25 0
12 -25 0
25 2 22 -12  0
-25 24 0
-2 -26 0
12 -26 0
23 -26 0
26 2 -12 -23  0
-26 24 0
2 -27 0
22 -27 0
-23 -27 0
27 -2 -22 23  0
-27 24 0
-11 -28 0
22 -28 0
-23 -28 0
28 11 -22 23  0
-28 24 0
-2 -29 0
11 -29 0
-22 -29 0
4 -29 0
29 2 -11 22 -4  0
-29 24 0
-2 -30 0
11 -30 0
4 -30 0
23 -30 0
30 2 -11 -4 -23  0
-30 24 0
-3 -31 0
22 -31 0
-12 -31 0
-23 -31 0
31 3 -22 12 23  0
-31 24 0
1 -32 0
-2 -32 0
3 -32 0
11 -32 0
-22 -32 0
32 -1 2 -3 -11 22  0
-32 24 0
1 -33 0
-2 -33 0
3 -33 0
11 -33 0
23 -33 0
33 -1 2 -3 -11 -23  0
-33 24 0
-1 -34 0
22 -34 0
-4 -34 0
-12 -34 0
-23 -34 0
34 1 -22 4 12 23  0
-34 24 0
-24 25 26 27 28 29 30 31 32 33 34  0
-1 -38 0
-3 -38 0
-11 -38 0
-22 -38 0
-35 -38 0
38 1 3 11 22 35  0
-38 37 0
2 -39 0
-3 -39 0
-11 -39 0
-22 -39 0
-35 -39 0
39 -2 3 11 22 35  0
-39 37 0
2 -40 0
-11 -40 0
-22 -40 0
-35 -40 0
4 -40 0
40 -2 11 22 35 -4  0
-40 37 0
2 -41 0
-3 -41 0
-22 -41 0
-35 -41 0
12 -41 0
41 -2 3 22 35 -12  0
-41 37 0
2 -42 0
-22 -42 0
-35 -42 0
4 -42 0
12 -42 0
42 -2 22 35 -4 -12  0
-42 37 0
2 -43 0
-3 -43 0
-11 -43 0
-35 -43 0
23 -43 0
43 -2 3 11 35 -23  0
-43 37 0
2 -44 0
-11 -44 0
-35 -44 0
4 -44 0
23 -44 0
44 -2 11 35 -4 -23  0
-44 37 0
2 -45 0
-3 -45 0
-35 -45 0
12 -45 0
23 -45 0
45 -2 3 35 -12 -23  0
-45 37 0
2 -46 0
-35 -46 0
4 -46 0
12 -46 0
23 -46 0
46 -2 35 -4 -12 -23  0
-46 37 0
-1 -47 0
-3 -47 0
-11 -47 0
-22 -47 0
36 -47 0
47 1 3 11 22 -36  0
-47 37 0
2 -48 0
-3 -48 0
-11 -48 0
-22 -48 0
36 -48 0
48 -2 3 11 22 -36  0
-48 37 0
2 -49 0
-11 -49 0
-22 -49 0
4 -49 0
36 -49 0
49 -2 11 22 -4 -36  0
-49 37 0
2 -50 0
-3 -50 0
-22 -50 0
12 -50 0
36 -50 0
50 -2 3 22 -12 -36  0
-50 37 0
2 -51 0
-22 -51 0
4 -51 0
12 -51 0
36 -51 0
51 -2 22 -4 -12 -36  0
-51 37 0
2 -52 0
-3 -52 0
-11 -52 0
23 -52 0
36 -52 0
52 -2 3 11 -23 -36  0
-52 37 0
2 -53 0
-11 -53 0
4 -53 0
23 -53 0
36 -53 0
53 -2 11 -4 -23 -36  0
-53 37 0
2 -54 0
-3 -54 0
12 -54 0
23 -54 0
36 -54 0
54 -2 3 -12 -23 -36  0
-54 37 0
2 -55 0
4 -55 0
12 -55 0
23 -55 0
36 -55 0
55 -2 -4 -12 -23 -36  0
-55 37 0
-1 -56 0
-2 -56 0
-3 -56 0
-11 -56 0
35 -56 0
23 -56 0
-36 -56 0
56 1 2 3 11 -35 -23 36  0
-56 37 0
-1 -57 0
-2 -57 0
-3 -57 0
22 -57 0
35 -57 0
12 -57 0
-23 -57 0
-36 -57 0
57 1 2 3 -22 -35 -12 23 36  0
-57 37 0
-1 -58 0
-2 -58 0
11 -58 0
22 -58 0
35 -58 0
4 -58 0
-12 -58 0
-23 -58 0
-36 -58 0
58 1 2 -11 -22 -35 -4 12 23 36  0
-58 37 0
1 -59 0
-2 -59 0
3 -59 0
11 -59 0
22 -59 0
35 -59 0
-4 -59 0
-12 -59 0
-23 -59 0
-36 -59 0
59 -1 2 -3 -11 -22 -35 4 12 23 36  0
-59 37 0
-37 38 39 40 41 42 43 44 45 46 47 48 49 50 51 52 53 54 55 56 57 58 59  0
36 -61 0
61 -36  0
-61 60 0
35 -62 0
23 -62 0
62 -35 -23  0
-62 60 0
22 -63 0
35 -63 0
12 -63 0
63 -22 -35 -12  0
-63 60 0
11 -64 0
22 -64 0
35 -64 0
4 -64 0
64 -11 -22 -35 -4  0
-64 60 0
1 -65 0
3 -65 0
11 -65 0
22 -65 0
35 -65 0
65 -1 -3 -11 -22 -35  0
-65 60 0
-60 61 62 63 64 65  0
-2 -67 0
-35 -67 0
23 -67 0
67 2 35 -23  0
-67 66 0
-2 -68 0
23 -68 0
36 -68 0
68 2 -23 -36  0
-68 66 0
2 -69 0
35 -69 0
-36 -69 0
69 -2 -35 36  0
-69 66 0
-22 -70 0
35 -70 0
-36 -70 0
70 22 -35 36  0
-70 66 0
-2 -71 0
22 -71 0
-35 -71 0
12 -71 0
71 2 -22 35 -12  0
-71 66 0
-2 -72 0
22 -72 0
12 -72 0
36 -72 0
72 2 -22 -12 -36  0
-72 66 0
-11 -73 0
35 -73 0
-23 -73 0
-36 -73 0
73 11 -35 23 36  0
-73 66 0
-2 -74 0
11 -74 0
22 -74 0
-35 -74 0
4 -74 0
74 2 -11 -22 35 -4  0
-74 66 0
-2 -75 0
11 -75 0
22 -75 0
4 -75 0
36 -75 0
75 2 -11 -22 -4 -36  0
-75 66 0
-3 -76 0
35 -76 0
-12 -76 0
-23 -76 0
-36 -76 0
76 3 -35 12 23 36  0
-76 66 0
1 -77 0
-2 -77 0
3 -77 0
11 -77 0
22 -77 0
-35 -77 0
77 -1 2 -3 -11 -22 35  0
-77 66 0
1 -78 0
-2 -78 0
3 -78 0
11 -78 0
22 -78 0
36 -78 0
78 -1 2 -3 -11 -22 -36  0
-78 66 0
-1 -79 0
35 -79 0
-4 -79 0
-12 -79 0
-23 -79 0
-36 -79 0
79 1 -35 4 12 23 36  0
-79 66 0
-66 67 68 69 70 71 72 73 74 75 76 77 78 79  0
-35 -81 0
81 35  0
-81 80 0
-22 -82 0
-36 -82 0
82 22 36  0
-82 80 0
-11 -83 0
-23 -83 0
-36 -83 0
83 11 23 36  0
-83 80 0
-4 -84 0
-12 -84 0
-23 -84 0
-36 -84 0
84 4 12 23 36  0
-84 80 0
-80 81 82 83 84  0
3 -86 0
11 -86 0
22 -86 0
35 -86 0
86 -3 -11 -22 -35  0
-86 85 0
-85 86  0
-3 -87 0
4 -87 0
87 3 -4  0
-87 5 0
-11 -88 0
12 -88 0
88 11 -12  0
-88 5 0
-22 -89 0
23 -89 0
89 22 -23  0
-89 5 0
-35 -90 0
36 -90 0
90 35 -36  0
-90 5 0
-5 87 88 89 90  0
-3 -91 0
4 -91 0
91 3 -4  0
-91 13 0
-11 -92 0
12 -92 0
92 11 -12  0
-92 13 0
-22 -93 0
23 -93 0
93 22 -23  0
-93 13 0
-35 -94 0
36 -94 0
94 35 -36  0
-94 13 0
-13 91 92 93 94  0
-3 -95 0
4 -95 0
95 3 -4  0
-95 24 0
-11 -96 0
12 -96 0
96 11 -12  0
-96 24 0
-22 -97 0
23 -97 0
97 22 -23  0
-97 24 0
-35 -98 0
36 -98 0
98 35 -36  0
-98 24 0
-24 95 96 97 98  0
-3 -99 0
4 -99 0
99 3 -4  0
-99 37 0
-11 -100 0
12 -100 0
100 11 -12  0
-100 37 0
-22 -101 0
23 -101 0
101 22 -23  0
-101 37 0
-35 -102 0
36 -102 0
102 35 -36  0
-102 37 0
-37 99 100 101 102  0
-3 -103 0
4 -103 0
103 3 -4  0
-103 60 0
-11 -104 0
12 -104 0
104 11 -12  0
-104 60 0
-22 -105 0
23 -105 0
105 22 -23  0
-105 60 0
-35 -106 0
36 -106 0
106 35 -36  0
-106 60 0
-60 103 104 105 106  0
-3 -107 0
4 -107 0
107 3 -4  0
-107 66 0
-11 -108 0
12 -108 0
108 11 -12  0
-108 66 0
-22 -109 0
23 -109 0
109 22 -23  0
-109 66 0
-35 -110 0
36 -110 0
110 35 -36  0
-110 66 0
-66 107 108 109 110  0
-3 -111 0
4 -111 0
111 3 -4  0
-111 80 0
-11 -112 0
12 -112 0
112 11 -12  0
-112 80 0
-22 -113 0
23 -113 0
113 22 -23  0
-113 80 0
-35 -114 0
36 -114 0
114 35 -36  0
-114 80 0
-80 111 112 113 114  0
-3 -115 0
4 -115 0
115 3 -4  0
-115 85 0
-11 -116 0
12 -116 0
116 11 -12  0
-116 85 0
-22 -117 0
23 -117 0
117 22 -23  0
-117 85 0
-35 -118 0
36 -118 0
118 35 -36  0
-118 85 0
-85 115 116 117 118  0
